(declare-fun a_ack!137 () (_ BitVec 32))
(declare-fun b_ack!132 () (_ BitVec 32))
(declare-fun c_ack!133 () (_ BitVec 32))
(declare-fun d_ack!134 () (_ BitVec 32))
(declare-fun e_ack!135 () (_ BitVec 32))
(declare-fun f_ack!136 () (_ BitVec 32))
(declare-fun FPCHECK_FADD_UNDERFLOW
             ((_ FloatingPoint 11 53) (_ BitVec 64))
             Bool)
(assert (not (bvslt a_ack!137 #x00000000)))
(assert (not (bvslt b_ack!132 #x00000000)))
(assert (not (bvslt c_ack!133 #x00000000)))
(assert (not (bvslt b_ack!132 #x00000000)))
(assert (not (bvslt (bvadd a_ack!137 c_ack!133) b_ack!132)))
(assert (= #x00000000 (bvand (bvadd a_ack!137 b_ack!132 c_ack!133) #x00000001)))
(assert (not (bvslt a_ack!137 #x00000000)))
(assert (not (bvslt b_ack!132 #x00000000)))
(assert (not (bvslt c_ack!133 #x00000000)))
(assert (= #x00000000 (bvand (bvadd a_ack!137 d_ack!134) #x00000001)))
(assert (= #x00000000 (bvand (bvadd b_ack!132 e_ack!135) #x00000001)))
(assert (= #x00000000 (bvand (bvadd c_ack!133 f_ack!136) #x00000001)))
(assert (= #x00000000 (bvadd d_ack!134 e_ack!135 f_ack!136)))
(assert (= #x00000000 d_ack!134))
(assert (= #x00000000 e_ack!135))
(assert (= #x00000000 f_ack!136))
(assert (not (= #x00000002 (bvsrem (bvadd a_ack!137 b_ack!132 c_ack!133) #x00000004))))
(assert (let ((a!1 (bvslt (bvsub (bvsdiv (bvadd b_ack!132 e_ack!135) #x00000002)
                         (bvsdiv (bvsub c_ack!133 f_ack!136) #x00000002))
                  #x00000000)))
  (not a!1)))
(assert (let ((a!1 (bvslt (bvsub (bvsdiv (bvsub a_ack!137 d_ack!134) #x00000002)
                         (bvsdiv (bvadd c_ack!133 f_ack!136) #x00000002))
                  (bvsub (bvsdiv (bvadd b_ack!132 e_ack!135) #x00000002)
                         (bvsdiv (bvsub c_ack!133 f_ack!136) #x00000002)))))
  (not a!1)))
(assert (let ((a!1 (bvslt (bvsdiv (bvsub (bvadd a_ack!137 b_ack!132) c_ack!133)
                          #x00000002)
                  (bvsdiv (bvsub a_ack!137 d_ack!134) #x00000002))))
  (not a!1)))
(assert (not (bvslt (bvsdiv (bvsub a_ack!137 d_ack!134) #x00000002)
            (bvsdiv (bvadd b_ack!132 e_ack!135) #x00000002))))
(assert (let ((a!1 (bvult a_ack!137
                  (bvsdiv (bvsub (bvadd a_ack!137 b_ack!132) c_ack!133)
                          #x00000002))))
  (not a!1)))
(assert (= (bvsdiv (bvsub (bvadd a_ack!137 b_ack!132) c_ack!133) #x00000002) a_ack!137))
(assert (let ((a!1 (bvult b_ack!132
                  (bvsdiv (bvsub (bvadd a_ack!137 b_ack!132) c_ack!133)
                          #x00000002))))
  (not a!1)))
(assert (= (bvsdiv (bvsub (bvadd a_ack!137 b_ack!132) c_ack!133) #x00000002) b_ack!132))
(assert (let ((a!1 (bvadd #x00000001
                  (bvsdiv (bvadd (bvadd a_ack!137 b_ack!132) c_ack!133)
                          #x00000002))))
(let ((a!2 (bvult a!1
                  (bvsdiv (bvsub (bvadd a_ack!137 b_ack!132) c_ack!133)
                          #x00000002))))
  (not a!2))))
(assert (let ((a!1 (bvadd #x00000001
                  (bvsdiv (bvadd (bvadd a_ack!137 b_ack!132) c_ack!133)
                          #x00000002))))
(let ((a!2 (= (bvsdiv (bvsub (bvadd a_ack!137 b_ack!132) c_ack!133) #x00000002)
              a!1)))
  (not a!2))))
(assert (= #x00000000 (bvsdiv (bvsub (bvadd a_ack!137 b_ack!132) c_ack!133) #x00000002)))
(assert (not (bvult a_ack!137 (bvsdiv (bvsub a_ack!137 d_ack!134) #x00000002))))
(assert (= (bvsdiv (bvsub a_ack!137 d_ack!134) #x00000002) a_ack!137))
(assert (not (bvult b_ack!132 (bvsdiv (bvsub b_ack!132 e_ack!135) #x00000002))))
(assert (= (bvsdiv (bvsub b_ack!132 e_ack!135) #x00000002) b_ack!132))
(assert (not (bvult c_ack!133 (bvsdiv (bvadd c_ack!133 f_ack!136) #x00000002))))
(assert (= (bvsdiv (bvadd c_ack!133 f_ack!136) #x00000002) c_ack!133))
(assert (FPCHECK_FADD_UNDERFLOW
  ((_ to_fp 11 53) roundNearestTiesToEven c_ack!133)
  #x3ff0000000000000))

(check-sat)
(exit)
